(declare-fun bvlambda_17_ ()Bool         )
(declare-fun a74 () (Array (_ BitVec 1) (_ BitVec 4)))
(assert
(let (($e1 (_ bv0 1)))
(let (($e6 (_ bv1920 16)))
(let (($e17 (_ bv1920 11)))
(let (($e75 (concat $e17 $e1         )))
(let (($e76 (concat $e75 $e1         )))
(let (($e77 (concat $e76 $e1         )))
(let (($e78 (concat $e77 $e1         )))
(let (($e79 (concat $e78 bvlambda_17_)))
(let (($e86 (bvand (bvnot $e6) $e79)))
(let (($e87 (bvand $e6 (bvnot $e79))))
(let (($e88 (bvand (bvnot $e87) (bvnot $e86))))
(let (($e696 (   extract      $e88)))
(let (($e697 (concat $e1 $e696      )))
(let (($e698 (concat $e697 $e697      )))
(let (($e699 (store a74 $e1 $e698)))
(let (($e700 (select $e699 (bvnot $e696))))
             ((_ extract 3 3) $e700)
                                                                                                                                                                                                                                                                                                                                                                                                                                                                                                                                                                                                                                                                                                                                                                                                                                                                                                                                                              )))))                                                                                                                                                                                                                                                                                                                                                                                                                                                                                                                                                                                                                               )))      )))))                                 )          )    ))
